minizinc/sudoku_problems2/sudoku_p9.dzn
%
% sudoku_p9.dzn
% See http://www.hakank.org/minizinc/sudoku_gcc.mzn
% 
% This problem is problem 9 from
% Gecode's sudoku.cpp
% http://www.gecode.org/gecode-doc-latest/sudoku_8cpp-source.html
% 
x = array2d(1..n, 1..n, [   
% Puzzle 4 from http://www.sudoku.org.uk/bifurcation.htm
% 9
  3,  _,  5,  _,  _,  4,  _,  7,  _,
  _,  7,  _,  _,  _,  _,  _,  _,  1,
  _,  4,  _,  9,  _,  _,  _,  3,  _,
  4,  _,  _,  _,  5,  1,  _,  _,  6,
  _,  9,  _,  _,  _,  _,  _,  4,  _,
  2,  _,  _,  8,  4,  _,  _,  _,  7,
  _,  2,  _,  _,  _,  7,  _,  6,  _,
  8,  _,  _,  _,  _,  _,  _,  9,  _,
  _,  6,  _,  4,  _,  _,  2,  _,  8
]);

n = 9;


